0 65638 
1 64826 
2 64788 
3 60120 
4 58770 
5 58254 
6 57878 
7 56752 
8 56054 
9 55936 
10 55896 
11 55496 
12 55128 
13 54896 
14 53522 
15 53508 
16 52102 
17 51836 
18 51296 
19 50970 
20 50034 
21 50002 
22 49850 
23 49382 
24 48340 
25 47304 
26 47284 
27 47090 
28 46110 
29 45084 
30 45022 
31 44452 
32 44238 
33 43934 
34 43688 
35 43598 
36 42448 
37 40750 
38 39074 
39 38314 
40 38182 
41 37256 
42 35668 
43 34808 
44 34520 
45 34330 
46 32522 
47 31550 
48 26098 
49 25506 
50 25274 
51 24388 
52 23992 
53 23846 
54 22126 
55 21746 
56 21738 
57 21444 
58 21320 
59 21174 
60 20942 
61 20356 
62 18868 
63 18456 
64 18380 
65 17780 
66 16724 
67 15242 
68 15104 
69 14056 
70 13980 
71 13828 
72 12422 
73 12256 
74 11834 
75 11342 
76 11258 
77 11154 
78 10920 
79 10508 
80 10508 

